NAME : RC106.7232.tour
COMMENT : Cost = 0_7232
COMMENT : Found by LKH [Keld Helsgaun] Wed Sep 13 18:34:39 2017
TYPE : TOUR
DIMENSION : 56
TOUR_SECTION
1
3
46
6
9
8
7
47
5
4
2
54
32
30
28
27
29
35
56
12
13
15
48
16
17
10
11
14
18
55
34
31
33
51
52
24
22
19
20
50
21
23
49
26
25
53
43
45
40
41
37
39
42
44
38
36
-1
EOF
